/*********************************************
 * OPL 12.7.1.0 Data
 * Author: Guillaume
 * Creation Date: 15 févr. 2019 at 09:33:07
 *********************************************/

max_freq=10;
t_max=7;
offsets = { 
  <1,2,3>,
  <1,5,2>,
  <2,3,2>,
  <2,4,1>,
  <2,5,2>, 
  <3,4,3>,
  <3,5,1>,   
  <6,3,1>,
  <6,4,2>,
  <7,2,3>,
  <7,3,2>};